n = 14;
k = 7;
initial_occ = array2d(CELL_DOMAIN, CELL_DOMAIN, [ 0, 0, 0, 0, 0, 0, 0, 0, 0, 0, 0, 0, 0, 0,
												  0, 0, 0, 0, 0, 0, 0, 0, 0, 0, 0, 0, 0, 0,
												  0, 0, 0, 0, 0, 0, 0, 1, 0, 0, 0, 0, 0, 0,
												  0, 0, 0, 0, 0, 0, 0, 0, 0, 0, 0, 0, 0, 0,
												  2, 0, 0, 0, 0, 0, 0, 0, 0, 0, 0, 0, 0, 0,
												  0, 1, 0, 0, 0, 1, 0, 0, 0, 0, 0, 0, 1, 0,
												  0, 0, 0, 0, 0, 0, 0, 0, 0, 0, 0, 0, 0, 0,
												  0, 0, 0, 0, 0, 0, 0, 0, 0, 0, 0, 0, 1, 0,
												  0, 0, 0, 0, 0, 0, 0, 0, 0, 0, 0, 0, 0, 0,
												  0, 0, 0, 0, 0, 0, 0, 0, 0, 0, 0, 0, 0, 0,
												  0, 0, 0, 0, 0, 0, 0, 0, 0, 0, 0, 0, 0, 0,
												  0, 0, 0, 0, 0, 0, 0, 0, 1, 0, 0, 0, 0, 0,
												  0, 0, 0, 0, 1, 3, 0, 0, 0, 0, 0, 0, 0, 0,
												  0, 0, 0, 0, 0, 0, 0, 0, 0, 0, 0, 0, 0, 0,
												 ]);